c Sudoku solution
p cnf 729 0
228 0
253 0
289 0
327 0
378 0
385 0
393 0
414 0
496 0
525 0
541 0
574 0
647 0
654 0
683 0
711 0
744 0
758 0
799 0
815 0
839 0
863 0
443 0
148 0
891 0
888 0
824 0
946 0
842 0
857 0
765 0
876 0
245 0
135 0
349 0
455 0
186 0
481 0
984 0
961 0
959 0
216 0
312 0
582 0
556 0
152 0
351 0
366 0
334 0
231 0
171 0
621 0
636 0
662 0
726 0
787 0
923 0
732 0
773 0
422 0
129 0
113 0
533 0
167 0
264 0
194 0
277 0
292 0
972 0
995 0
675 0
698 0
597 0
479 0
437 0
468 0
569 0
518 0
619 0
917 0
938 0
